ShortestPaths/InputData/v5cd.lp
Maximize
Obj:  +1 x12 +1 x13 +1 x14 +1 x15
Subject to
row0:  +1 x12 +1 x13 +1 x14 +1 x15 = 0
row1:  -1 x13 -1 x23 +1 x34 +1 x35 = 0
row2:  -1 x14 -1 x24 -1 x34 +1 x45 = 0
row3:  -1 x15 -1 x25 -1 x35 -1 x45 = 0
row4:  +1 x12 <= 4.0
row5:  +1 x13 <= 4.0
row6:  +1 x14 <= 1.0
row7:  +1 x15 <= 4.0
row8:  +1 x23 <= 4.0
row9:  +1 x24 <= 4.0
row10:  +1 x25 <= 4.0
row11:  +1 x34 <= 1.0
row12:  +1 x35 <= 1.0
row13:  +1 x45 <= 3.0
Bounds
End
