ShortestPaths/OutputData/V5CD.sol
Max Flow: 11.0
(1,2) : 4.0
(1,3) : 2.0
(1,4) : 1.0
(1,5) : 4.0
(2,5) : 4.0
(3,4) : 1.0
(3,5) : 1.0
(4,5) : 2.0
